num_offers = 20;
num_halls = 10;
start=[41,17,92,28,18,51,13,5,56,14,14,14,25,47,44,21,23,12,21,48];
end=[46,88,100,29,53,54,19,40,61,96,49,64,68,86,97,57,81,32,90,54];
price=[115,4511,632,169,3233,134,238,1456,418,1688,2834,683,3130,888,5309,2974,3720,264,2000,620];
requirement=[654,413,947,968,817,936,344,620,436,569,665,564,421,721,573,640,322,256,630,416];
capacity=[504,966,980,729,825,815,996,606,686,999];
